(set-info :smt-lib-version 2.6)
(set-logic QF_S)
(set-info :source |
Generated by: Murphy Berzish, Mitja Kulczynski, Federico Mora, Florin Manea, Joel Day, Dirk Nowotka, Vijay Ganesh, Zhengyang Lu
Generated on: 2020-10-01
Description: Translated from a collection of real-world regex queries, AutomataArk, collected by Loris D’Antoni and Fang Wang: https://github.com/lorisdanto/automatark
Application: Evaluate solvers on real-world regex queries
Target solver: Z3str3RE, CVC4, OSTRICH, Z3seq, Z3str3, Z3-Trau
Publications: Berzish, M., Kulczynski, M., Mora, F., Manea, F., Day, J. D., Nowotka, D., & Ganesh, V. (2021, July). An SMT solver for regular expressions and linear arithmetic over string length. In CAV 2021.
|)
(set-info :license "https://creativecommons.org/licenses/by/4.0/")
(set-info :category "industrial")
(set-info :status unsat)

(declare-const X String)
(assert (str.in_re X (re.union ((_ re.loop 1 3) (re.range "0" "9")) (re.++ ((_ re.loop 1 3) (re.range "0" "9")) (re.opt (str.to_re ".")) (str.to_re "\u{a}") ((_ re.loop 0 0) (re.range "0" "9")) (re.union (str.to_re "0") (str.to_re ",") (str.to_re "5"))))))
(assert (str.in_re X (re.++ (str.to_re "/filename=") (re.* (re.comp (str.to_re "\u{a}"))) (str.to_re ".cnt/i\u{a}"))))
(assert (not (str.in_re X (str.to_re "ppcdomain.co.ukBasic\u{a}"))))
(assert (not (str.in_re X (re.union (re.++ (re.union (re.++ (re.union (re.++ (str.to_re "0") (re.range "1" "9")) (re.++ (str.to_re "1") (re.range "0" "9")) (re.++ (str.to_re "2") (re.range "0" "8"))) (str.to_re "/") (re.union (re.++ (str.to_re "0") (re.range "1" "9")) (re.++ (str.to_re "1") (re.range "0" "2")))) (re.++ (str.to_re "31/") (re.union (re.++ (str.to_re "0") (re.union (str.to_re "1") (str.to_re "3") (str.to_re "5") (str.to_re "7") (str.to_re "8"))) (re.++ (str.to_re "1") (re.union (str.to_re "0") (str.to_re "2"))))) (re.++ (re.union (str.to_re "29") (str.to_re "30")) (str.to_re "/") (re.union (re.++ (str.to_re "0") (re.union (str.to_re "1") (str.to_re ",") (re.range "3" "9"))) (re.++ (str.to_re "1") (re.range "0" "2"))))) (str.to_re "/") (re.union (re.++ (str.to_re "20") (re.range "0" "9") (re.range "0" "9")) (re.++ (str.to_re "19") (re.range "0" "9") (re.range "0" "9")))) (re.++ (str.to_re "\u{a}29/02/") (re.union (str.to_re "19") (str.to_re "20")) (re.union (re.++ (re.union (str.to_re "0") (str.to_re "2") (str.to_re "4") (str.to_re "6") (str.to_re "8")) (re.union (str.to_re "0") (str.to_re "4") (str.to_re "8"))) (re.++ (re.union (str.to_re "1") (str.to_re "3") (str.to_re "5") (str.to_re "7") (str.to_re "9")) (re.union (str.to_re "2") (str.to_re "6")))))))))
(assert (str.in_re X (re.++ (re.* (re.union (str.to_re "]") (str.to_re "\u{22}"))) (re.* (re.comp (str.to_re "["))) (str.to_re "[/url]\u{a}[url") (re.opt (str.to_re "=")) (re.opt (str.to_re "\u{22}")) (re.opt (str.to_re "\u{22}")) (str.to_re "]"))))
(check-sat)

(exit)
